(set-logic ALL)
(declare-const BAV1 Bool)
(declare-const GEN3 Int)
(declare-const GEN2 Int)
(declare-const GEN1 String)
(set-option :strings-exp true)
(declare-fun string () String)
(assert (> (str.indexof string GEN1 GEN2) GEN3))
(assert (= BAV1 (> (str.indexof string GEN1 GEN2) GEN3)))
(check-sat)
(get-model)